c --- [ banner ] -------------------------------------------------------------
c 
c CaDiCaL Radically Simplified CDCL SAT Solver
c Copyright (c) 2016-2021 A. Biere, M. Fleury, N. Froleyks
c 
c Version 1.5.2 a5f15211db36c3956764e18194dd5bd63bf3b5e6
c g++ (GCC) 9.3.0 -Wall -Wextra -O3 -DNDEBUG
c Fri Oct 21 01:27:37 EDT 2022 Linux gra-login3 3.10.0-1160.66.1.el7.x86_64 x86_64
c 
c --- [ limit ] --------------------------------------------------------------
c 
c setting conflict limit to 200000 conflicts (due to '200000')
c 
c --- [ parsing input ] ------------------------------------------------------
c 
c reading DIMACS file from '33.cubes6407.adj'
c opening file to read '33.cubes6407.adj'
c found 'p cnf 6160 1595471' header
c parsed 1595471 clauses in 22.05 seconds process time
c closing file '33.cubes6407.adj'
c after reading 1457566750 bytes 1390.0 MB
c 
c --- [ options ] ------------------------------------------------------------
c 
c all options are set to their default value
c 
c --- [ solving ] ------------------------------------------------------------
c 
c time measured in process time since initialization
c 
c  seconds    reductions  redundant   irredundant
c          MB     restarts       trail       variables
c            level   conflicts       glue         remaining
c 
c * 22.05 1378  0 0   0    0    0  0% 0 1595422 2429 39%
c { 23.83 1444  0 0   0    0    0  0% 0 1595422 2429 39%
c i 25.59 1484 968 0   0   36   20 37% 3 1595422 2415 39%
c i 29.45 1524 348 0  16  100   79 32% 26 1595422 2380 39%
c i 31.22 1527 206 0  46  262  214 29% 52 1595422 2379 39%
c i 31.35 1527 190 0  46  290  233 29% 50 1595422 2372 39%
c - 34.83 1468 184 1  46  300  241 29% 49 245977 2371 38%
c i 35.13 1423 180 1  46  318  258 29% 49 245977 2370 38%
c i 35.25 1423 178 1  46  336  268 29% 51 245977 2369 38%
c i 35.68 1423 166 1  61  427  349 29% 53 245977 2368 38%
c i 35.72 1423 161 1  61  447  364 29% 53 245977 2367 38%
c i 35.76 1423 154 1  61  474  387 29% 51 245977 2366 38%
c i 35.91 1423 121 1  61  717  587 29% 47 245977 2365 38%
c i 35.92 1423 121 1  61  723  592 29% 47 245977 2364 38%
c i 35.93 1423 119 1  61  744  609 29% 47 245977 2363 38%
c i 35.96 1423 109 1  61  871  709 29% 44 245977 2362 38%
c } 36.12 1423 103 1  61 1000  814 29% 44 245977 2362 38%
c [ 36.12 1423  0 1  61 1000  814  0% 0 245977 2362 38%
c O 36.13 1423 45 1  61 1004  816 26% 40 245977 2362 38%
c i 36.24 1423 20 1  61 1135  912 33% 17 245977 2361 38%
c 
c  seconds    reductions  redundant   irredundant
c          MB     restarts       trail       variables
c            level   conflicts       glue         remaining
c 
c - 36.73 1539 20 2  61 1135  806 33% 17 245949 2361 38%
c i 36.80 1539 20 2  61 1229  878 33% 18 245949 2360 38%
c i 37.01 1539 20 2  61 2008 1501 32% 17 245949 2359 38%
c - 37.42 1539 22 3  62 2386 1342 32% 18 245944 2359 38%
c ] 37.84 1489 23 3  62 3000 1758 57% 20 245944 2359 38%
c { 37.84 1489 103 3  62 3000 1758 77% 44 245944 2359 38%
c F 37.90 1489 102 3  62 3007 1765 77% 44 245944 2359 38%
c i 38.08 1489 101 3  64 3041 1793 76% 44 245944 2358 38%
c i 38.09 1489 101 3  64 3042 1793 76% 44 245944 2357 38%
c i 39.03 1489 106 3 103 3261 1970 70% 46 245944 2356 38%
c i 39.23 1489 108 3 111 3321 2027 69% 47 245944 2355 38%
c i 39.79 1489 105 3 143 3548 2213 66% 47 245944 2354 38%
c i 39.86 1489 103 3 143 3628 2280 65% 47 245944 2353 38%
c - 40.41 1488 94 4 144 4055 1913 62% 46 245931 2353 38%
c 2 41.42 1488 78 4 145 5000 3519 58% 42 245915 2349 38%
c p 48.46 1488 78 4 145 5000 7396 58% 42 245915 2219 36%
c d 48.87 1488 78 4 145 5000 6947 58% 42 205000 2216 36%
c # 49.98 1488 68 4 146 6008 7683 56% 38 204998 2215 36%
c - 50.57 1374 68 5 149 6141 2561 56% 38 204998 2215 36%
c } 51.76 1374 63 5 177 7001 3308 55% 35 204998 2215 36%
c 
c  seconds    reductions  redundant   irredundant
c          MB     restarts       trail       variables
c            level   conflicts       glue         remaining
c 
c [ 51.76 1374 23 5 177 7001 3308 57% 20 204998 2215 36%
c - 52.77 1374 25 6 178 8502 2964 53% 21 204998 2215 36%
c I 53.64 1374 24 6 179 10010 3843 53% 20 204998 2215 36%
c - 57.60 1375 31 7 180 11258 3464 51% 22 204998 2215 36%
c - 62.82 1375 31 8 182 14407 4129 50% 23 204998 2215 36%
c 2 64.03 1375 31 8 182 15000 5751 50% 23 204993 2215 36%
c p 65.97 1375 31 8 182 15000 9346 50% 23 204993 2215 36%
c ] 66.09 1375 31 8 182 15001 9347 50% 23 204993 2215 36%
c { 66.09 1375 63 8 182 15001 9347 55% 35 204993 2215 36%
c B 66.20 1375 63 8 182 15011 9357 55% 35 204993 2215 36%
c - 69.18 1375 55 9 238 17948 5078 53% 33 204993 2215 36%
c s 69.59 1375 52 9 238 18720 5548 53% 32 203244 2215 36%
c v 72.22 1375 52 9 238 18720 5548 53% 32 203229 2215 36%
c w 72.31 1375 52 9 238 18720 5536 53% 32 203229 2215 36%
c t 72.32 1375 52 9 238 18720 5523 53% 32 203217 2215 36%
c e 73.11 1376 52 9 238 18720 5231 53% 32 201076 997 16%
c s 73.20 1376 52 9 238 18720 5231 53% 32 199715 997 16%
c W 75.38 1376 48 9 257 21013 6704 69% 30 199715 997 16%
c - 75.80 1376 46 10 259 21883 5236 70% 30 199715 997 16%
c - 82.73 1377 41 11 279 26174 6131 70% 27 199715 997 16%
c 
c  seconds    reductions    redundant   irredundant
c          MB      restarts        trail       variables
c            level     conflicts       glue        remaining
c 
c F 87.65 1377 43 11 495 28016 7623 69% 28 199715 997 16%
c p 90.85 1377 42 11 571 30000 11550 70% 28 199715 997 16%
c - 91.54 1378 41 12 592 30857 6718 70% 27 199715 997 16%
c } 91.58 1378 41 12 592 31002 6814 70% 27 199715 997 16%
c [ 91.58 1378 31 12 592 31002 6814 119% 23 199715 997 16%
c - 93.24 1380 31 13 595 35928 6912 101% 24 199715 997 16%
c B 93.34 1380 31 13 595 36020 6978 101% 24 199715 997 16%
c - 95.32 1380 33 14 598 41390 7527 92% 27 199715 997 16%
c W 97.33 1380 34 14 599 45021 10097 88% 28 199715 997 16%
c - 98.47 1380 34 15 600 47241 8131 86% 28 199715 997 16%
c p 100.73 1380 34 15 600 50003 12896 85% 28 199715 997 16%
c - 102.57 1380 34 16 600 53482 8819 83% 29 199715 997 16%
c O 103.26 1380 34 16 601 55022 9841 82% 28 199715 997 16%
c ] 103.86 1380 34 16 603 56990 11123 81% 28 199715 997 16%
c 1 103.86 1380 34 16 603 56990 11123 81% 28 199715 997 16%
c 
c --- [ writing output ] -----------------------------------------------------
c 
c writing simplified CNF to DIMACS file 'simp/33.cubes6407.adj.simp1'
c * 103.86 1380 34 16 603 56990 11123 81% 28 199715 997 16%
c opening file to write 'simp/33.cubes6407.adj.simp1'
c writing 'p cnf 6160 199715' header
c closing file 'simp/33.cubes6407.adj.simp1'
c after writing 95148236 bytes 90.7 MB
c wrote 199715 clauses in 0.66 seconds process time
c 
c --- [ writing extension ] --------------------------------------------------
c 
c writing extension stack to 'simp/33.cubes6407.adj.ext1'
c opening file to write 'simp/33.cubes6407.adj.ext1'
c closing file 'simp/33.cubes6407.adj.ext1'
c after writing 80829 bytes 0.1 MB
c wrote 3611 witnesses in 0.00 seconds process time
c 
c --- [ result ] -------------------------------------------------------------
c 
s SATISFIABLE
c 
c --- [ run-time profiling ] -------------------------------------------------
c 
c process time taken by individual solving procedures
c (percentage relative to process time for solving)
c 
c        64.64   79.01% search
c        37.78   46.18% unstable
c        24.23   29.62% stable
c        22.05   26.96% parse
c        17.17   20.99% simplify
c        11.62   14.20% probe
c         2.70    3.30% vivify
c         1.78    2.17% lucky
c         1.52    1.85% elim
c         0.85    1.04% walk
c         0.16    0.20% subsume
c         0.14    0.17% ternary
c   =================================
c        81.81   78.27% solve
c 
c last line shows process time for solving
c (percentage relative to total process time)
c 
c --- [ statistics ] ---------------------------------------------------------
c 
c chronological:             10774        18.91 %  of conflicts
c conflicts:                 56990       696.61    per second
c decisions:                120695      1475.30    per second
c eliminated:                 1218        19.77 %  of all variables
c fixed:                       793        12.87 %  of all variables
c learned:                   55713        97.76 %  per conflict
c learned_lits:           11258898       100.00 %  learned literals
c minimized:                     0         0.00 %  learned literals
c shrunken:                6513945        57.86 %  learned literals
c minishrunken:            1130088        10.04 %  learned literals
c propagations:            5239041         0.06 M  per second
c reduced:                   30178        52.95 %  per conflict
c rephased:                     10      5699.00    interval
c restarts:                    603        94.51    interval
c stabilizing:                   3        63.15 %  of conflicts
c substituted:                   8         0.13 %  of all variables
c subsumed:                  17427         0.51 %  of all clauses
c strengthened:               2779         0.08 %  of all clauses
c ternary:                    3299         0.70 %  of resolved
c vivified:                     35         0.00 %  of all clauses
c walked:                        2     28495.00    interval
c weakened:                   2818         3.11    average size
c 
c seconds are measured in process time for solving
c 
c --- [ resources ] ----------------------------------------------------------
c 
c total process time since initialization:       104.53    seconds
c total real time since initialization:          104.81    seconds
c maximum resident set size of process:         1654.08    MB
c 
c --- [ shutting down ] ------------------------------------------------------
c 
c exit 10
WARNING! DIMACS header mismatch: wrong number of variables.
============================[ Problem Statistics ]=============================
|                                                                             |
|  Number of variables:          3764                                         |
|  Number of clauses:          199715                                         |
|  Parse time:                   1.27 s                                       |
|  Simplification time:          0.02 s                                       |
|                                                                             |
============================[ Search Statistics ]====================================================
| Conflicts |          ORIGINAL         |          LEARNT          | Num Sols |      SUBGRAPHS      |
|           |    Vars  Clauses Literals |    Limit  Clauses Lit/Cl |          | Canonical Noncanon. |
=====================================================================================================
|       100 |    3671   199715 20570065 |     2000      100    149 |        0 |        13         0 |
|       258 |    3671   199723 20570197 |     2000      258    137 |        0 |        25         8 |
|       491 |    3671   199731 20570486 |     2000      491    139 |        0 |        35        16 |
|       830 |    3671   199733 20570588 |     2000      830    122 |        0 |        37        18 |
|      1365 |    3671   199762 20571086 |     2000     1365    105 |        0 |        67        47 |
|      2211 |    3671   199849 20572273 |     3600     1211     54 |        0 |       113       134 |
|      3373 |    3671   199872 20572804 |     3600     2373     72 |        0 |       161       157 |
|      5292 |    3671   200083 20575488 |     5000     2492     44 |        0 |       207       368 |
|      7913 |    3671   200142 20576827 |     6312     2625     34 |        0 |       250       427 |
|     11932 |    3671   200317 20580182 |     7560     3492     34 |        0 |       324       602 |
|     17793 |    3671   200412 20582424 |     8782     5575     61 |        0 |       375       697 |
|     26656 |    3671   200626 20587796 |    11202     5058     28 |        0 |       481       911 |
|     48331 |    3671   209327 20740673 |    14805     8136     33 |        0 |      2736      9612 |
|     68022 |    3671   209557 20745318 |    17214    12436     52 |        0 |      2822      9842 |
|     97485 |    3671   209828 20750179 |    20810    14295     55 |        0 |      2906     10113 |
|    141537 |    3671   210091 20755678 |    25612    13149     33 |        0 |      2972     10376 |
|    207298 |    3671   210168 20757568 |    30405    24103     63 |        0 |      2995     10453 |
|    306132 |    3671   210476 20764414 |    37612    22744     51 |        0 |      3097     10761 |
|    455080 |    3671   211635 20789842 |    46015    27495     51 |        0 |      3492     11920 |
|    677707 |    3671   212579 20812679 |    55621    49328     71 |        0 |      3785     12864 |
|   1012245 |    3671   214592 20857131 |    68830    45075     55 |        0 |      4435     14877 |
|   1512786 |    3671   216345 20897678 |    84422    51608     50 |        0 |      5049     16630 |
|   2264074 |    3671   219451 20974753 |   103625    55699     40 |        0 |      6130     19736 |
|   3391772 |    3671   224875 21112667 |   126424    96596     59 |        1 |      7953     25159 |
|   5081969 |    3671   231661 21292775 |   155238   104407     53 |        1 |      9667     31945 |
|   7614127 |    3671   238703 21448735 |   190018   142545     56 |        1 |     11208     38987 |
=====================================================================================================
Number of solutions   : 1
Canonical subgraphs   : 13613          (6 /sec)
          order  3    : 1              (166667 /sec)
          order  4    : 1              (500000 /sec)
          order  5    : 1              (250000 /sec)
          order  6    : 1              (55556 /sec)
          order  7    : 1              (8850 /sec)
          order  8    : 2              (1363 /sec)
          order  9    : 6              (315 /sec)
          order 10    : 14             (65 /sec)
          order 11    : 55             (17 /sec)
          order 12    : 329            (6 /sec)
          order 13    : 742            (3 /sec)
          order 14    : 4843           (9 /sec)
          order 15    : 7434           (6 /sec)
          order 16    : 116            (11 /sec)
          order 17    : 42             (11 /sec)
          order 18    : 16             (8 /sec)
          order 19    : 5              (5 /sec)
          order 20    : 2              (6 /sec)
          order 21    : 1              (9 /sec)
          order 22    : 1              (1 /sec)
Noncanonical subgraphs: 53993          (156 /sec)
          order  3    : 0              (-nan /sec)
          order  4    : 0              (-nan /sec)
          order  5    : 0              (-nan /sec)
          order  6    : 0              (-nan /sec)
          order  7    : 0              (-nan /sec)
          order  8    : 0              (-nan /sec)
          order  9    : 0              (-nan /sec)
          order 10    : 0              (-nan /sec)
          order 11    : 0              (-nan /sec)
          order 12    : 0              (-nan /sec)
          order 13    : 2549           (5297 /sec)
          order 14    : 27085          (948 /sec)
          order 15    : 14351          (534 /sec)
          order 16    : 9909           (34 /sec)
          order 17    : 77             (114 /sec)
          order 18    : 17             (80 /sec)
          order 19    : 5              (34 /sec)
          order 20    : 0              (-nan /sec)
          order 21    : 0              (-nan /sec)
Canonicity checking   : 2100.51 s
Noncanonicity checking: 346.307 s
Total canonicity time : 2446.81 s
database reductions   : 188
restarts              : 16383
conflicts             : 10990095       (1777 /sec)
decisions             : 14002037       (0.00 % random) (2264 /sec)
propagations          : 591742358      (95698 /sec)
conflict literals     : 1202617360     (56.99 % deleted)
actual reward         : 0.233842
Memory used           : 397.00 MB
CPU time              : 6183.41 s

UNSATISFIABLE
